(set-logic HORN)
(declare-fun state (Int Int Int (Array Int Int) Int Int Int Bool Bool Bool Int Int Bool Bool Bool Bool Bool Int Int Int Int) Bool)
(assert (forall ((|E_5| Int) (|.y.11| Int) (|.y.12| Int) (|F_5| (Array Int Int)) (|H_5| Int) (|D_5| Int) (|A_6| Int) (|.loc.13| Bool) (|.loc.14| Bool) (|.loc.15| Bool) (|E_2| Int) (|D_2| Int) (|I_2| Bool) (|K_2| Bool) (|G_2| Bool) (|L_2| Bool) (|A_3| Bool) (|J_2| Int) (|F_2| Int) (|M_2| Int) (|G_5| Int) (|.loc.25| Bool) (|.loc.23| Bool) (|.loc.24| Bool) (|.y.20| Int) (|.y.21| Int) (|.y.16| Int) (|.y.19| (Array Int Int)) (|.y.22| Int) (|.y.17| Int) (|.y.18| Int) (|.xtv.1| Int) (|.xtv.2| Int) (|.xtv.3| Bool) (|.xtv.4| Bool) (|.xtv.5| Bool) (|.xtv.6| Bool) (|.xtv.7| Bool) (|.xtv.8| Int) (|.xtv.9| Int) (|.xtv.10| Int) (|.xtv.11| Int)) (=> (and (and (not .loc.13) (not .loc.14)) (not .loc.15)) (state |E_5| |.y.11| |.y.12| |F_5| |H_5| |D_5| |A_6| |.loc.13| |.loc.14| |.loc.15| |E_2| |D_2| |I_2| |K_2| |G_2| |L_2| |A_3| |J_2| |F_2| |M_2| |G_5|))))
(assert (forall ((|E_5| Int) (|.y.11| Int) (|.y.12| Int) (|F_5| (Array Int Int)) (|H_5| Int) (|D_5| Int) (|A_6| Int) (|.loc.13| Bool) (|.loc.14| Bool) (|.loc.15| Bool) (|E_2| Int) (|D_2| Int) (|I_2| Bool) (|K_2| Bool) (|G_2| Bool) (|L_2| Bool) (|A_3| Bool) (|J_2| Int) (|F_2| Int) (|M_2| Int) (|G_5| Int) (|.loc.25| Bool) (|.loc.23| Bool) (|.loc.24| Bool) (|.y.20| Int) (|.y.21| Int) (|.y.16| Int) (|.y.19| (Array Int Int)) (|.y.22| Int) (|.y.17| Int) (|.y.18| Int) (|.xtv.1| Int) (|.xtv.2| Int) (|.xtv.3| Bool) (|.xtv.4| Bool) (|.xtv.5| Bool) (|.xtv.6| Bool) (|.xtv.7| Bool) (|.xtv.8| Int) (|.xtv.9| Int) (|.xtv.10| Int) (|.xtv.11| Int)) (=> (and (state |E_5| |.y.11| |.y.12| |F_5| |H_5| |D_5| |A_6| |.loc.13| |.loc.14| |.loc.15| |E_2| |D_2| |I_2| |K_2| |G_2| |L_2| |A_3| |J_2| |F_2| |M_2| |G_5|) (let ((.def_31 (not .loc.13))) (let ((.def_32 (not .loc.14))) (let ((.def_36 (select F_5 G_5))) (let ((.def_37 (<= .def_36 H_5))) (let ((.def_41 (not (<= G_5 0)))) (let ((.def_42 (<= E_5 0))) (let ((.def_52 (not .def_42))) (let ((.def_55 (and (or .def_41 .def_42) (and (not (<= A_6 D_5)) (and (= (+ E_5 (+ D_5 (* (- 1) G_5))) 0) .def_52))))) (let ((.def_61 (not .loc.23))) (let ((.def_64 (not .loc.24))) (let ((.def_71 (not .loc.25))) (let ((.def_75 (<= A_6 H_5))) (let ((.def_78 (= E_5 .y.16))) (let ((.def_81 (= F_5 .y.19))) (let ((.def_85 (= A_6 .y.22))) (let ((.def_100 (= H_5 .y.20))) (let ((.def_116 (<= H_5 .y.12))) (let ((.def_123 (not K_2))) (let ((.def_129 (not L_2))) (let ((.def_130 (or .def_123 .def_129))) (let ((.def_134 (not I_2))) (let ((.def_226 (<= .y.11 0))) (and (not .loc.15) (or (or (or (or (and .loc.14 (or (or (and (and (and (and .loc.13 (and (not .def_37) .def_55)) .loc.25) .def_61) .def_64) (and (and (= D_5 .y.20) (and (and (and (and (= .y.21 0) (and .def_31 (and (and .loc.23 .loc.24) .def_71))) .def_75) .def_78) .def_81)) .def_85)) (and (and (= (+ D_5 (* (- 1) .y.21)) (- 1)) (and .def_85 (and .def_81 (and .def_78 (and .def_71 (and .loc.24 (and .loc.23 (and .loc.13 (and .def_37 .def_55))))))))) .def_100))) (and (= H_5 .y.22) (and (= .y.11 .y.16) (and (and (= .y.21 (select F_5 .y.11)) (and (= .y.20 1) (and .def_32 (and .def_81 (and .def_71 (and .def_61 (and .loc.13 .loc.24))))))) .def_116)))) (and (or (not A_3) (or (not .def_75) .def_123)) (and (or .def_41 (or .def_42 .def_123)) (and (or (= D_5 M_2) .def_130) (and (or (not (<= E_2 0)) (or .def_42 .def_134)) (and (or .def_134 (= J_2 .y.21)) (and (or .def_123 (= G_2 (not (<= D_2 D_5)))) (and (or .def_123 (= (+ E_5 (+ H_5 (* (- 1) G_5))) 0)) (and (or .def_123 (= D_2 .def_36)) (and (or .def_52 .def_123) (and (or .def_134 (= (+ E_5 (+ H_5 (* (- 1) E_2))) 0)) (and (or .def_134 (= F_2 (select F_5 E_2))) (and (or .def_52 .def_134) (and (= (+ H_5 (* (- 1) .y.20)) (- 1)) (and (or .def_130 (= M_2 .y.21)) (and .def_85 (and .def_81 (and .def_78 (and .def_31 (and .def_71 (and .def_61 (and .loc.24 (and .loc.14 (and (or I_2 (and K_2 L_2)) (and (or .def_134 (= J_2 F_2)) (and (or .def_134 (and I_2 K_2)) (and (or K_2 .def_129) (and (or .def_123 (and K_2 A_3)) (and (or .def_130 (not G_2)) (or G_2 (or .def_123 .def_134))))))))))))))))))))))))))))))) (and (not (<= .y.17 0)) (and (not (<= .y.20 0)) (and (= .y.18 0) (and .def_32 (and .def_78 (and .def_31 (and .def_71 (and .loc.23 .def_64))))))))) (and (= .y.11 .y.17) (and (not .def_116) (and (or (not (<= D_2 0)) .def_226) (and (= (+ .y.11 (+ .y.12 (* (- 1) D_2))) 0) (and (not .def_226) (and (= (+ .y.12 (* (- 1) .y.18)) (- 1)) (and (= .y.19 (store F_5 D_2 E_2)) (and .def_32 (and .def_100 (and .def_78 (and .def_71 (and .def_64 (and .loc.13 .loc.23)))))))))))))))))))))))))))))))))))))) (state |.y.16| |.y.17| |.y.18| |.y.19| |.y.20| |.y.21| |.y.22| |.loc.23| |.loc.24| |.loc.25| |.xtv.1| |.xtv.2| |.xtv.3| |.xtv.4| |.xtv.5| |.xtv.6| |.xtv.7| |.xtv.8| |.xtv.9| |.xtv.10| |.xtv.11|))))
(assert (forall ((|E_5| Int) (|.y.11| Int) (|.y.12| Int) (|F_5| (Array Int Int)) (|H_5| Int) (|D_5| Int) (|A_6| Int) (|.loc.13| Bool) (|.loc.14| Bool) (|.loc.15| Bool) (|E_2| Int) (|D_2| Int) (|I_2| Bool) (|K_2| Bool) (|G_2| Bool) (|L_2| Bool) (|A_3| Bool) (|J_2| Int) (|F_2| Int) (|M_2| Int) (|G_5| Int) (|.loc.25| Bool) (|.loc.23| Bool) (|.loc.24| Bool) (|.y.20| Int) (|.y.21| Int) (|.y.16| Int) (|.y.19| (Array Int Int)) (|.y.22| Int) (|.y.17| Int) (|.y.18| Int) (|.xtv.1| Int) (|.xtv.2| Int) (|.xtv.3| Bool) (|.xtv.4| Bool) (|.xtv.5| Bool) (|.xtv.6| Bool) (|.xtv.7| Bool) (|.xtv.8| Int) (|.xtv.9| Int) (|.xtv.10| Int) (|.xtv.11| Int)) (=> (state |E_5| |.y.11| |.y.12| |F_5| |H_5| |D_5| |A_6| |.loc.13| |.loc.14| |.loc.15| |E_2| |D_2| |I_2| |K_2| |G_2| |L_2| |A_3| |J_2| |F_2| |M_2| |G_5|) (not (and .loc.15 (and (not .loc.13) (not .loc.14)))))))
(check-sat)
